maximize
obj: 1 x_25_
subject to
lbs: -1 x_1_ <= 0
lbs_1: -1 x_2_ <= 0
lbs_2: -1 x_3_ <= 1000
lbs_3: -1 x_4_ <= 1000
lbs_4: -1 x_5_ <= 0
lbs_5: -1 x_6_ <= 1000
lbs_6: -1 x_7_ <= 1000
lbs_7: -1 x_8_ <= 1000
lbs_8: -1 x_9_ <= 1000
lbs_9: -1 x_10_ <= 1000
lbs_10: -1 x_11_ <= 1000
lbs_11: -1 x_12_ <= 1000
lbs_12: -1 x_13_ <= 0
lbs_13: -1 x_14_ <= 1000
lbs_14: -1 x_15_ <= 1000
lbs_15: -1 x_16_ <= -8.39
lbs_16: -1 x_17_ <= 0
lbs_17: -1 x_18_ <= 1000
lbs_18: -1 x_19_ <= 0
lbs_19: -1 x_20_ <= 1000
lbs_20: -1 x_21_ <= 0
lbs_21: -1 x_22_ <= 1000
lbs_22: -1 x_23_ <= 1000
lbs_23: -1 x_24_ <= 0
lbs_24: -1 x_25_ <= 0
lbs_25: -1 x_26_ <= 1000
lbs_26: -1 x_27_ <= 1000
lbs_27: -1 x_28_ <= 1000
lbs_28: -1 x_29_ <= 0
lbs_29: -1 x_30_ <= 1000
lbs_30: -1 x_31_ <= 0
lbs_31: -1 x_32_ <= 0
lbs_32: -1 x_33_ <= 1000
lbs_33: -1 x_34_ <= 1000
lbs_34: -1 x_35_ <= 0
lbs_35: -1 x_36_ <= 1000
lbs_36: -1 x_37_ <= 0
lbs_37: -1 x_38_ <= 1000
lbs_38: -1 x_39_ <= 1000
lbs_39: -1 x_40_ <= 0
lbs_40: -1 x_41_ <= 1000
lbs_41: -1 x_42_ <= 1000
lbs_42: -1 x_43_ <= 1000
lbs_43: -1 x_44_ <= 0
lbs_44: -1 x_45_ <= 0
lbs_45: -1 x_46_ <= 0
lbs_46: -1 x_47_ <= 1000
lbs_47: -1 x_48_ <= 0
lbs_48: -1 x_49_ <= 0
lbs_49: -1 x_50_ <= 0
lbs_50: -1 x_51_ <= 0
lbs_51: -1 x_52_ <= 10
lbs_52: -1 x_53_ <= 0
lbs_53: -1 x_54_ <= 0
lbs_54: -1 x_55_ <= 1000
lbs_55: -1 x_56_ <= 1000
lbs_56: -1 x_57_ <= 0
lbs_57: -1 x_58_ <= 0
lbs_58: -1 x_59_ <= 1000
lbs_59: -1 x_60_ <= 1000
lbs_60: -1 x_61_ <= 1000
lbs_61: -1 x_62_ <= 0
lbs_62: -1 x_63_ <= 0
lbs_63: -1 x_64_ <= 1000
lbs_64: -1 x_65_ <= 0
lbs_65: -1 x_66_ <= 0
lbs_66: -1 x_67_ <= 1000
lbs_67: -1 x_68_ <= 0
lbs_68: -1 x_69_ <= 0
lbs_69: -1 x_70_ <= 1000
lbs_70: -1 x_71_ <= 0
lbs_71: -1 x_72_ <= 1000
lbs_72: -1 x_73_ <= 1000
lbs_73: -1 x_74_ <= 0
lbs_74: -1 x_75_ <= 0
lbs_75: -1 x_76_ <= 0
lbs_76: -1 x_77_ <= 1000
lbs_77: -1 x_78_ <= 0
lbs_78: -1 x_79_ <= 0
lbs_79: -1 x_80_ <= 1000
lbs_80: -1 x_81_ <= 0
lbs_81: -1 x_82_ <= 1000
lbs_82: -1 x_83_ <= 1000
lbs_83: -1 x_84_ <= 0
lbs_84: -1 x_85_ <= 1000
lbs_85: -1 x_86_ <= 0
lbs_86: -1 x_87_ <= 0
lbs_87: -1 x_88_ <= 1000
lbs_88: -1 x_89_ <= 0
lbs_89: -1 x_90_ <= 0
lbs_90: -1 x_91_ <= 0
lbs_91: -1 x_92_ <= 0
lbs_92: -1 x_93_ <= 1000
lbs_93: -1 x_94_ <= 1000
lbs_94: -1 x_95_ <= 0
ubs: 1 x_1_ <= 1000
ubs_1: 1 x_2_ <= 1000
ubs_2: 1 x_3_ <= 1000
ubs_3: 1 x_4_ <= 1000
ubs_4: 1 x_5_ <= 1000
ubs_5: 1 x_6_ <= 1000
ubs_6: 1 x_7_ <= 1000
ubs_7: 1 x_8_ <= 1000
ubs_8: 1 x_9_ <= 1000
ubs_9: 1 x_10_ <= 1000
ubs_10: 1 x_11_ <= 1000
ubs_11: 1 x_12_ <= 1000
ubs_12: 1 x_13_ <= 1000
ubs_13: 1 x_14_ <= 1000
ubs_14: 1 x_15_ <= 1000
ubs_15: 1 x_16_ <= 1000
ubs_16: 1 x_17_ <= 1000
ubs_17: 1 x_18_ <= 1000
ubs_18: 1 x_19_ <= 1000
ubs_19: 1 x_20_ <= 1000
ubs_20: 1 x_21_ <= 1000
ubs_21: 1 x_22_ <= 1000
ubs_22: 1 x_23_ <= 1000
ubs_23: 1 x_24_ <= 1000
ubs_24: 1 x_25_ <= 1000
ubs_25: 1 x_26_ <= 1000
ubs_26: 1 x_27_ <= 1000
ubs_27: 1 x_28_ <= 1000
ubs_28: 1 x_29_ <= 1000
ubs_29: 1 x_30_ <= 1000
ubs_30: 1 x_31_ <= 1000
ubs_31: 1 x_32_ <= 1000
ubs_32: 1 x_33_ <= 1000
ubs_33: 1 x_34_ <= 1000
ubs_34: 1 x_35_ <= 1000
ubs_35: 1 x_36_ <= 1000
ubs_36: 1 x_37_ <= 1000
ubs_37: 1 x_38_ <= 1000
ubs_38: 1 x_39_ <= 1000
ubs_39: 1 x_40_ <= 1000
ubs_40: 1 x_41_ <= 1000
ubs_41: 1 x_42_ <= 1000
ubs_42: 1 x_43_ <= 1000
ubs_43: 1 x_44_ <= 1000
ubs_44: 1 x_45_ <= 1000
ubs_45: 1 x_46_ <= 1000
ubs_46: 1 x_47_ <= 1000
ubs_47: 1 x_48_ <= 1000
ubs_48: 1 x_49_ <= 1000
ubs_49: 1 x_50_ <= 1000
ubs_50: 1 x_51_ <= 1000
ubs_51: 1 x_52_ <= 1000
ubs_52: 1 x_53_ <= 1000
ubs_53: 1 x_54_ <= 1000
ubs_54: 1 x_55_ <= 1000
ubs_55: 1 x_56_ <= 1000
ubs_56: 1 x_57_ <= 1000
ubs_57: 1 x_58_ <= 1000
ubs_58: 1 x_59_ <= 1000
ubs_59: 1 x_60_ <= 1000
ubs_60: 1 x_61_ <= 1000
ubs_61: 1 x_62_ <= 1000
ubs_62: 1 x_63_ <= 1000
ubs_63: 1 x_64_ <= 1000
ubs_64: 1 x_65_ <= 1000
ubs_65: 1 x_66_ <= 1000
ubs_66: 1 x_67_ <= 0
ubs_67: 1 x_68_ <= 1000
ubs_68: 1 x_69_ <= 1000
ubs_69: 1 x_70_ <= 1000
ubs_70: 1 x_71_ <= 1000
ubs_71: 1 x_72_ <= 1000
ubs_72: 1 x_73_ <= 1000
ubs_73: 1 x_74_ <= 1000
ubs_74: 1 x_75_ <= 1000
ubs_75: 1 x_76_ <= 1000
ubs_76: 1 x_77_ <= 1000
ubs_77: 1 x_78_ <= 1000
ubs_78: 1 x_79_ <= 1000
ubs_79: 1 x_80_ <= 1000
ubs_80: 1 x_81_ <= 1000
ubs_81: 1 x_82_ <= 1000
ubs_82: 1 x_83_ <= 1000
ubs_83: 1 x_84_ <= 1000
ubs_84: 1 x_85_ <= 1000
ubs_85: 1 x_86_ <= 1000
ubs_86: 1 x_87_ <= 1000
ubs_87: 1 x_88_ <= 1000
ubs_88: 1 x_89_ <= 1000
ubs_89: 1 x_90_ <= 1000
ubs_90: 1 x_91_ <= 1000
ubs_91: 1 x_92_ <= 1000
ubs_92: 1 x_93_ <= 1000
ubs_93: 1 x_94_ <= 1000
ubs_94: 1 x_95_ <= 1000
mb: -1 x_52_ - 1 x_74_ = 0
mb_1: -0.2557 x_25_ + 1 x_75_ + 1 x_76_ - 1 x_78_ - 1 x_79_ = 0
mb_2: -1 x_53_ - 1 x_76_ = 0
mb_3: -4.9414 x_25_ - 1 x_75_ - 1 x_77_ + 1 x_78_ + 2 x_79_ + 1 x_80_ = 0
mb_4: -1 x_54_ - 1 x_80_ = 0
mb_5: 1 x_84_ - 1 x_86_ = 0
mb_6: -1 x_5_ - 1 x_13_ + 1 x_14_ - 1 x_15_ - 1 x_16_ - 1 x_19_ + 1 x_22_ - 59.81 x_25_ - 1 x_29_ + 1 x_32_ + 1 x_34_ - 1 x_65_ - 1 x_70_ - 1 x_76_ - 1 x_77_ - 1 x_78_ + 1 x_82_ - 1 x_86_ = 0
mb_7: -1 x_56_ - 1 x_82_ = 0
mb_8: 1 x_1_ + 1 x_5_ + 1 x_6_ + 1 x_7_ + 1 x_9_ + 1 x_10_ + 1 x_13_ + 1 x_16_ + 1 x_18_ + 2 x_19_ + 3 x_22_ - 1 x_24_ + 59.81 x_25_ + 1 x_26_ + 1 x_29_ + 2 x_31_ - 2 x_32_ + 1 x_33_ + 1 x_35_ + 1 x_36_ + 2 x_40_ + 1 x_66_ + 2 x_71_ + 1 x_72_ + 1 x_73_ + 1 x_75_ + 1 x_76_ + 1 x_77_ - 1 x_79_ + 1 x_80_ + 1 x_85_ + 1 x_86_ + 2 x_87_ + 1 x_88_ - 4 x_91_ = 0
mb_9: -1 x_7_ - 1 x_9_ - 1 x_18_ - 4 x_22_ - 1 x_26_ - 2 x_31_ + 2 x_32_ - 1 x_33_ - 1 x_35_ - 1 x_36_ - 2 x_40_ - 1 x_55_ - 1 x_66_ - 2 x_71_ - 1 x_80_ - 2 x_87_ + 3 x_91_ = 0
mb_10: 1 x_15_ - 1 x_83_ - 1 x_84_ = 0
mb_11: 1 x_33_ - 1 x_85_ = 0
mb_12: -1 x_33_ - 1 x_57_ = 0
mb_13: 1 x_70_ + 1 x_86_ + 1 x_87_ - 1 x_88_ - 1 x_89_ - 1 x_90_ = 0
mb_14: -1 x_58_ - 1 x_87_ = 0
mb_15: -1 x_6_ - 1 x_10_ - 1 x_21_ - 3.547 x_25_ + 1 x_40_ - 1 x_73_ - 1 x_85_ - 1 x_88_ - 1 x_89_ + 1 x_91_ - 1 x_92_ - 1 x_95_ = 0
mb_16: 1 x_6_ + 1 x_10_ + 1 x_21_ + 3.547 x_25_ - 1 x_40_ + 1 x_73_ + 1 x_85_ + 1 x_88_ + 1 x_89_ - 1 x_91_ + 1 x_92_ + 1 x_95_ = 0
mb_17: 13.0279 x_25_ - 1 x_40_ - 1 x_72_ - 1 x_77_ + 1 x_79_ - 1 x_81_ - 1 x_83_ - 1 x_90_ + 1 x_92_ = 0
mb_18: -13.0279 x_25_ + 1 x_40_ + 1 x_72_ + 1 x_77_ - 1 x_79_ + 1 x_81_ + 1 x_83_ + 1 x_90_ - 1 x_92_ = 0
mb_19: -1 x_75_ + 1 x_77_ + 1 x_78_ + 1 x_93_ = 0
mb_20: 1 x_4_ + 1 x_73_ = 0
mb_21: -1 x_59_ - 1 x_93_ = 0
mb_22: -0.5 x_32_ + 1 x_94_ = 0
mb_23: -1 x_8_ - 1 x_34_ = 0
mb_24: -1 x_60_ - 1 x_94_ = 0
mb_25: -1 x_4_ + 1 x_8_ - 1.496 x_25_ = 0
mb_26: 1 x_13_ - 1 x_17_ - 1.7867 x_25_ - 1 x_29_ + 1 x_88_ = 0
mb_27: -1 x_13_ + 1 x_17_ + 1 x_19_ - 1 x_24_ - 0.5191 x_25_ + 1 x_34_ - 1 x_69_ - 1 x_74_ = 0
mb_28: 1 x_5_ - 1 x_81_ = 0
mb_29: 1 x_9_ + 1 x_13_ + 1 x_16_ + 1 x_19_ - 1 x_22_ - 1 x_23_ + 59.81 x_25_ + 1 x_38_ + 1 x_65_ - 1 x_73_ + 1 x_75_ + 1 x_76_ = 0
mb_30: -1 x_5_ + 1 x_72_ = 0
mb_31: -1 x_9_ - 1 x_61_ = 0
mb_32: -1 x_12_ + 1 x_18_ = 0
mb_33: -1 x_2_ - 1 x_19_ + 1 x_24_ - 2.8328 x_25_ + 1 x_26_ + 1 x_69_ + 1 x_74_ + 1 x_85_ + 1 x_89_ + 1 x_90_ - 1 x_95_ = 0
mb_34: -1 x_26_ - 1 x_62_ = 0
mb_35: 1 x_32_ - 1 x_37_ + 1 x_68_ - 1 x_91_ = 0
mb_36: -1 x_32_ + 1 x_37_ - 1 x_68_ + 1 x_91_ = 0
mb_37: -0.8977 x_25_ - 1 x_30_ - 1 x_41_ = 0
mb_38: -1 x_28_ + 1 x_30_ + 1 x_81_ = 0
mb_39: -1 x_18_ - 1 x_44_ = 0
mb_40: -1 x_6_ + 1 x_10_ + 1 x_11_ = 0
mb_41: -1 x_39_ + 1 x_41_ = 0
mb_42: -1 x_11_ - 1 x_45_ = 0
mb_43: 1 x_2_ + 1 x_6_ - 1 x_23_ - 3.7478 x_25_ - 1 x_29_ - 1 x_86_ + 1 x_95_ = 0
mb_44: 1 x_31_ - 1 x_35_ - 1 x_37_ - 1 x_38_ + 1 x_68_ + 1 x_84_ = 0
mb_45: -1 x_31_ + 1 x_35_ - 1 x_63_ = 0
mb_46: 1 x_21_ + 1 x_38_ = 0
mb_47: 1 x_14_ - 1 x_15_ = 0
mb_48: 1 x_28_ - 1 x_41_ - 1 x_42_ = 0
mb_49: 1 x_12_ + 1 x_23_ = 0
mb_50: 1 x_1_ + 1 x_4_ + 1 x_12_ + 1 x_16_ + 1 x_17_ + 2 x_20_ - 1 x_22_ - 1 x_24_ + 59.81 x_25_ + 1 x_38_ + 1 x_75_ + 1 x_76_ = 0
mb_51: 1 x_7_ - 1 x_21_ + 4.1182 x_25_ + 1 x_77_ - 1 x_79_ + 1 x_83_ = 0
mb_52: -1 x_7_ - 1 x_46_ = 0
mb_53: 1 x_19_ - 1 x_20_ = 0
mb_54: -1 x_1_ - 1 x_4_ - 1 x_12_ - 1 x_16_ - 1 x_17_ - 1 x_19_ - 1 x_20_ + 1 x_22_ + 1 x_24_ - 59.81 x_25_ - 1 x_38_ - 1 x_75_ - 1 x_76_ = 0
mb_55: -1 x_14_ + 1 x_29_ = 0
mb_56: -1 x_13_ + 1 x_17_ + 1 x_21_ + 1 x_27_ + 1 x_81_ + 1 x_83_ + 1 x_89_ + 1 x_90_ + 1 x_95_ = 0
mb_57: -1 x_27_ - 1 x_47_ = 0
mb_58: -1 x_2_ - 1 x_6_ - 1 x_21_ + 1 x_23_ + 3.7478 x_25_ + 1 x_29_ - 1 x_38_ + 1 x_86_ - 1 x_95_ = 0
mb_59: -1 x_43_ + 1 x_64_ = 0
mb_60: -0.361 x_25_ + 1 x_39_ - 1 x_42_ = 0
mb_61: -1 x_10_ + 1 x_36_ = 0
mb_62: -1 x_36_ - 1 x_48_ = 0
mb_63: -1 x_1_ + 1 x_3_ - 0.0709 x_25_ + 1 x_39_ + 1 x_42_ + 1 x_65_ + 1 x_69_ = 0
mb_64: 1 x_1_ - 1 x_64_ - 1 x_65_ = 0
mb_65: 1 x_2_ + 1 x_66_ + 1 x_67_ = 0
mb_66: -1 x_49_ - 1 x_66_ - 1 x_67_ = 0
mb_67: -1 x_50_ - 1 x_69_ = 0
mb_68: 1 x_37_ - 1 x_68_ - 1 x_70_ + 1 x_71_ = 0
mb_69: -1 x_51_ - 1 x_71_ = 0
mb_70: -0.129 x_25_ - 1 x_39_ + 1 x_41_ + 1 x_42_ + 1 x_43_ + 1 x_64_ - 1 x_73_ = 0
mb_71: -1 x_3_ - 0.205 x_25_ - 1 x_72_ + 1 x_74_ = 0
Bounds
x_1_ free
x_2_ free
x_3_ free
x_4_ free
x_5_ free
x_6_ free
x_7_ free
x_8_ free
x_9_ free
x_10_ free
x_11_ free
x_12_ free
x_13_ free
x_14_ free
x_15_ free
x_16_ free
x_17_ free
x_18_ free
x_19_ free
x_20_ free
x_21_ free
x_22_ free
x_23_ free
x_24_ free
x_25_ free
x_26_ free
x_27_ free
x_28_ free
x_29_ free
x_30_ free
x_31_ free
x_32_ free
x_33_ free
x_34_ free
x_35_ free
x_36_ free
x_37_ free
x_38_ free
x_39_ free
x_40_ free
x_41_ free
x_42_ free
x_43_ free
x_44_ free
x_45_ free
x_46_ free
x_47_ free
x_48_ free
x_49_ free
x_50_ free
x_51_ free
x_52_ free
x_53_ free
x_54_ free
x_55_ free
x_56_ free
x_57_ free
x_58_ free
x_59_ free
x_60_ free
x_61_ free
x_62_ free
x_63_ free
x_64_ free
x_65_ free
x_66_ free
x_67_ free
x_68_ free
x_69_ free
x_70_ free
x_71_ free
x_72_ free
x_73_ free
x_74_ free
x_75_ free
x_76_ free
x_77_ free
x_78_ free
x_79_ free
x_80_ free
x_81_ free
x_82_ free
x_83_ free
x_84_ free
x_85_ free
x_86_ free
x_87_ free
x_88_ free
x_89_ free
x_90_ free
x_91_ free
x_92_ free
x_93_ free
x_94_ free
x_95_ free
End
